s td 134 12 194
b 1 7 67 112 127 135
b 2 10 14 94 99 154
b 3 11 75 90
b 4 12 43 110 179 191
b 5 23 54 59
b 6 8 24 69 151 178
b 7 30 39 58 164 191
b 8 22 26 35 37 47
b 9 31 41 83 124 144
b 10 48 66 76 90 106
b 11 36 50 150 169 177
b 12 36 53 55 89 150
b 13 57 61 75 90 173
b 14 42 45 62 68
b 15 18 45 59 65 156
b 16 8 69 80 122 162
b 17 85 90 106 128 155
b 18 59 86 134 181
b 19 87 119 126 167 170
b 20 59 95 101 134 181
b 21 59 107 147
b 22 81 108 146 158 160
b 23 109 113 158 160 165
b 24 114 140 179 191 193
b 25 22 35 73 116 120
b 26 15 59 121
b 27 31 125 129 136 144
b 28 59 138 142 156
b 29 3 59 147 157 182
b 30 14 97 153 154 174
b 31 59 127 183
b 32 8 69 173
b 33 15 54 59 102
b 34 1 32 45 79 142
b 35 39 58 191 192
b 36 54 59 102 145
b 37 57 66 76 90 106
b 38 57 90 106 128 155
b 39 4 20 45 100 189
b 40 59 112 127
b 41 5 20 42 45 59 152
b 42 20 42 45 59 68 152
b 43 43 99 179 191
b 44 46 59 72 91 152 189
b 45 57 75 90 106 173
b 46 4 20 45 59 68 152 189
b 47 4 45 59 68 91 152 189
b 48 59 68 72 91 152 189
b 49 4 45 59 68 79 91 152
b 50 59 78 92 157
b 51 3 59 92 157 182
b 52 14 97 154 193
b 53 13 58 105 179 191
b 54 1 28 33 45 59 95 102 119 130 133 139 142
b 55 3 28 33 45 59 92 102 104 119 137 139 185
b 56 3 26 33 59 60 73 92 104 137 139 141 185
b 57 22 26 33 35 59 60 73 104 139 141
b 58 22 33 35 59 60 104 139 141 194
b 59 22 33 35 52 59 60 104 139 194
b 60 33 35 52 59 60 139 175 194
b 61 33 51 52 59 139 143 175 194
b 62 2 33 51 52 59 143 194
b 63 2 33 51 52 77 194
b 64 33 51 52 71 77 194
b 65 33 51 71 77 159 194
b 66 35 59 88 175 194
b 67 19 22 35 59 60 141 194
b 68 19 22 40 59 60
b 69 3 26 59 60 70 73 92 137 141 158 160 185
b 70 3 26 59 60 70 73 141 158 160 169 185
b 71 3 53 59 60 70 73 141 158 160 169 185
b 72 3 53 59 60 70 93 141 160 169 185
b 73 9 53 59 60 70 93 141 168 169 185
b 74 9 16 53 59 70 141 168 169 185
b 75 9 16 36 53 70 141 169 185
b 76 16 36 53 70 141 150 169 185
b 77 16 36 70 82 141 150
b 78 59 70 93 98 160
b 79 53 73 81 158 160
b 80 26 113 158 160 169
b 81 3 59 70 92 148 158 160
b 82 70 92 148 158 160 166
b 83 3 28 45 59 92 102 104 119 137 184 185
b 84 3 45 59 92 102 119 184 188
b 85 3 59 92 102 115 188
b 86 59 92 102 115 118 188
b 87 59 102 118 123
b 88 92 115 118 132 188
b 89 3 59 92 102 115 182
b 90 1 21 45 59 95 102 119 130 133 142
b 91 1 18 21 45 59 95 142 181
b 92 1 18 21 45 59 95 134 181
b 93 1 6 18 21 45 134 181
b 94 1 6 18 21 44 45 181
b 95 18 45 59 95 142 156 181
b 96 21 45 59 102 119 130 133 187
b 97 17 59 102 119 130 187
b 98 17 59 64 119 130 187
b 99 17 34 64 119 167 187
b 100 17 34 119 126 167 170
b 101 17 59 102 130 145
b 102 1 28 33 45 59 95 130 133 139 142 173
b 103 28 33 59 84 106 130 133 139 173 192
b 104 13 28 33 59 84 96 106 133 139 192
b 105 13 33 38 56 59 84 96 106 139 149 192
b 106 13 33 38 56 59 96 139 149 180 192
b 107 13 33 38 56 59 96 149 163 180 192
b 108 13 33 38 49 59 96 149 163 180 192
b 109 13 29 33 49 59 96 149 163 180 192
b 110 13 14 29 33 49 96 111 163 180 192
b 111 13 14 27 29 49 96 111 154 163 192
b 112 14 27 29 49 96 103 111 154 163
b 113 14 27 29 49 96 103 154 161
b 114 27 29 49 103 117 161
b 115 25 27 29 103 117 161
b 116 25 27 29 103 117 172
b 117 13 14 27 154 179 191 192
b 118 13 27 58 179 191 192
b 119 59 75 84 106 130 133 173 192
b 120 59 69 75 84 130 133 173
b 121 69 75 84 130 176
b 122 59 75 90 106 173 192
b 123 1 45 59 79 142 173
b 124 45 59 68 79 152 173
b 125 21 31 45 144 186
b 126 4 45 59 79 91 171
b 127 21 31 45 186 187
b 128 21 31 45 133 187
b 129 9 59 60 63 93 168
b 130 74 115 118 132 188 190
b 131 45 59 112 119 184 188
b 132 51 59 131 139 143 175
b 133 14 99 154 179 191
b 134 14 154 179 191 193
1 40
2 133
3 122
4 43
5 36
6 32
7 35
8 57
9 125
10 37
11 76
12 76
13 45
14 42
15 95
16 32
17 38
18 92
19 100
20 92
21 29
22 79
23 80
24 134
25 57
26 33
27 125
28 95
29 51
30 52
31 40
32 120
33 36
34 123
35 118
36 101
37 45
38 45
39 46
40 131
41 42
42 46
43 133
44 48
45 122
46 47
47 48
47 49
49 126
49 124
50 51
51 89
52 134
53 118
54 55
54 90
54 102
55 56
55 83
56 57
56 69
57 58
58 59
58 67
59 60
60 61
60 66
61 132
61 62
62 63
63 64
64 65
67 68
69 70
69 81
70 71
70 80
71 72
71 79
72 73
72 78
73 129
73 74
74 75
75 76
76 77
81 82
83 84
84 131
84 85
85 86
85 89
86 87
86 88
88 130
90 91
90 96
91 92
91 95
92 93
93 94
96 128
96 97
97 98
97 101
98 99
99 100
102 103
102 123
103 104
103 119
104 105
105 106
106 107
107 108
108 109
109 110
110 111
111 112
111 117
112 113
113 114
114 115
115 116
117 133
117 134
117 118
119 120
119 122
120 121
123 124
125 127
127 128
